c IN1002 Introduction to Algorithms!
c top secret ID string d1d07403c32
c 12 variables and 50 clauses
p cnf 12 50
c each line is a clause, 0 marks the end
5 -2 -8 0
-4 -5 -11 0
-4 -8 -6 0
8 9 7 0
-10 3 -7 0
9 -2 -9 0
11 5 6 0
12 -4 8 0
-2 -4 6 0
-2 1 -4 0
-8 -5 6 0
-4 5 -9 0
-1 -12 -3 0
7 10 -6 0
2 -12 11 0
7 11 -3 0
12 10 -9 0
8 11 1 0
3 -4 10 0
-2 9 0
6 -12 7 0
2 -4 -1 0
7 10 1 0
-9 4 -2 0
-3 -5 0
-2 -8 -1 0
7 -9 -4 0
10 -12 -4 0
-1 3 5 0
-2 -11 3 0
12 7 3 0
6 -2 -12 0
-6 -8 10 0
7 -4 2 0
-6 7 11 0
7 -8 -10 0
-7 11 -4 0
3 11 -4 0
11 -1 12 0
5 11 -10 0
-5 10 9 0
12 5 -3 0
-12 11 1 0
10 7 9 0
1 -12 4 0
9 10 4 0
-11 11 12 0
6 9 -4 0
5 -3 -3 0
-1 -5 -1 0
c Good luck!
